data;

param roll_width := 110 ;

param: WIDTHS: orders :=

		 22 	 17

		 36 	 28

		 68 	 27

		 44 	 26

		 20 	 6

		 79 	 4

		 88 	 9

		 108 	 5

		 89 	 25

		 70 	 15

		 35 	 23

		 61 	 2

		 49 	 26

		 13 	 16

		 21 	 6
